200 50
22
20
2
42
31
47
32
30
27
10
31
35
34
29
31
42
14
48
44
3
17
5
16
7
16
12
17
49
45
46
7
35
10
34
32
50
36
13
30
33
36
31
26
25
24
35
7
9
44
18
39
11
49
43
12
12
34
39
14
24
44
49
28
34
32
38
35
23
45
33
39
28
22
32
27
22
5
25
40
22
5
41
28
6
4
31
31
43
39
40
45
29
28
14
18
4
35
23
38
23
24
50
4
29
11
3
31
46
11
16
15
1
45
13
43
45
1
47
30
11
42
49
26
33
13
23
46
49
40
9
39
46
46
28
2
39
18
22
18
2
43
15
35
41
47
30
37
50
13
5
3
47
41
23
50
44
26
33
40
18
23
47
17
20
30
4
26
47
27
37
16
34
13
24
15
35
43
11
47
17
43
23
43
22
19
31
34
41
32
4
37
34
21
8
36
17
19
2
25
20